(declare-fun var0 () String)
(assert (str.in.re var0 (re.++ (re.* (re.union (re.union (re.union (re.* (re.union (re.* (re.* (re.union (re.union (re.+ (re.union (re.union (re.+ (str.to.re "A")) (re.+ (str.to.re "BBB"))) (re.+ (re.union (str.to.re "CCC") (str.to.re "DDD"))))) (re.+ (re.+ (re.* (re.* (str.to.re "EEE")))))) (re.* (re.union (re.+ (re.+ (re.+ (str.to.re "FFF")))) (re.+ (re.+ (re.union (str.to.re "GGG") (str.to.re "H"))))))))) (re.+ (re.* (re.union (re.union (re.+ (re.+ (re.* (re.* (str.to.re "III"))))) (re.* (re.union (re.* (re.* (str.to.re "JJJ"))) (re.union (re.union (str.to.re "KK") (str.to.re "L")) (re.* (str.to.re "M")))))) (re.+ (re.* (re.* (re.* (re.+ (str.to.re "NNN"))))))))))) (re.+ (re.+ (re.+ (re.union (re.union (re.+ (re.+ (re.union (re.union (re.* (str.to.re "OOO")) (re.union (str.to.re "P") (str.to.re "QQ"))) (re.* (re.+ (str.to.re "RR")))))) (re.union (re.* (re.+ (re.* (re.union (str.to.re "SS") (str.to.re "T"))))) (re.+ (re.+ (re.* (re.* (str.to.re "UUU"))))))) (re.+ (re.+ (re.+ (re.union (re.* (re.* (str.to.re "V"))) (re.* (re.+ (str.to.re "W")))))))))))) (re.+ (re.+ (re.union (re.+ (re.* (re.* (re.union (re.* (re.union (re.* (re.* (str.to.re "XXX"))) (re.* (re.+ (str.to.re "YY"))))) (re.union (re.union (re.* (re.* (str.to.re "Z"))) (re.+ (re.+ (str.to.re "!!")))) (re.union (re.+ (re.union (str.to.re """") (str.to.re "###"))) (re.+ (re.* (str.to.re "$$"))))))))) (re.* (re.union (re.* (re.* (re.+ (re.* (re.* (re.* (str.to.re "%%"))))))) (re.* (re.+ (re.union (re.* (re.+ (re.union (str.to.re "&&&") (str.to.re "'''")))) (re.* (re.* (re.+ (str.to.re "(("))))))))))))) (re.* (re.* (re.union (re.* (re.* (re.union (re.+ (re.* (re.union (re.union (re.union (re.union (str.to.re ")))") (str.to.re "***")) (re.union (str.to.re "+") (str.to.re ",,"))) (re.* (re.+ (str.to.re "--")))) (re.* (re.+ (re.+ (str.to.re "..."))))))) (re.+ (re.* (re.* (re.union (re.+ (re.+ (str.to.re "///"))) (re.+ (re.* (str.to.re "::")))))))))) (re.union (re.* (re.union (re.union (re.* (re.* (re.+ (re.union (re.* (str.to.re ";;;")) (re.union (str.to.re "<") (str.to.re "==")))))) (re.* (re.union (re.+ (re.+ (re.+ (str.to.re ">>>")))) (re.+ (re.union (re.* (str.to.re "???")) (re.+ (str.to.re "@@@"))))))) (re.union (re.+ (re.* (re.+ (re.union (re.union (str.to.re "[[[") (str.to.re "\\\\")) (re.+ (str.to.re "]")))))) (re.+ (re.union (re.union (re.union (re.union (str.to.re "^^") (str.to.re "_")) (re.union (str.to.re "```") (str.to.re "{{{"))) (re.* (re.+ (str.to.re "||")))) (re.union (re.union (re.* (str.to.re "}}")) (re.+ (str.to.re "~~"))) (re.* (re.+ (str.to.re "000"))))))))) (re.union (re.* (re.union (re.union (re.union (re.+ (re.* (re.+ (str.to.re "111")))) (re.* (re.+ (re.union (str.to.re "222") (str.to.re "333"))))) (re.* (re.union (re.+ (re.* (str.to.re "44"))) (re.* (re.+ (str.to.re "55")))))) (re.union (re.+ (re.* (re.* (re.* (str.to.re "6"))))) (re.* (re.union (re.* (re.+ (str.to.re "77"))) (re.+ (re.+ (str.to.re "88")))))))) (re.* (re.* (re.* (re.union (re.union (re.union (re.+ (str.to.re "9")) (re.+ (str.to.re "a"))) (re.* (re.* (str.to.re "bb")))) (re.+ (re.+ (re.* (str.to.re "ccc"))))))))))))))) (re.* (re.* (re.union (re.+ (re.union (re.+ (re.+ (re.* (re.+ (re.+ (re.* (re.union (re.union (re.+ (str.to.re "0")) (re.* (str.to.re "111"))) (re.+ (re.+ (str.to.re "22")))))))))) (re.union (re.* (re.+ (re.+ (re.+ (re.* (re.+ (re.* (re.union (str.to.re "3") (str.to.re "44"))))))))) (re.+ (re.* (re.+ (re.* (re.* (re.union (re.* (re.+ (str.to.re "5"))) (re.union (re.+ (str.to.re "66")) (re.union (str.to.re "77") (str.to.re "8")))))))))))) (re.union (re.+ (re.+ (re.+ (re.union (re.union (re.* (re.union (re.union (re.* (re.* (str.to.re "9"))) (re.+ (re.+ (str.to.re "a")))) (re.* (re.union (re.+ (str.to.re "bb")) (re.+ (str.to.re "ccc")))))) (re.* (re.+ (re.union (re.+ (re.union (str.to.re "ddd") (str.to.re "eee"))) (re.union (re.+ (str.to.re "ff")) (re.union (str.to.re "ggg") (str.to.re "hh"))))))) (re.+ (re.union (re.union (re.+ (re.+ (re.union (str.to.re "i") (str.to.re "jjj")))) (re.* (re.* (re.union (str.to.re "kkk") (str.to.re "l"))))) (re.+ (re.+ (re.* (re.* (str.to.re "m"))))))))))) (re.+ (re.* (re.union (re.union (re.+ (re.+ (re.union (re.+ (re.* (re.+ (str.to.re "nnn")))) (re.+ (re.+ (re.+ (str.to.re "ooo"))))))) (re.* (re.* (re.union (re.union (re.+ (re.* (str.to.re "pp"))) (re.* (re.union (str.to.re "qq") (str.to.re "rr")))) (re.* (re.union (re.* (str.to.re "sss")) (re.* (str.to.re "ttt")))))))) (re.* (re.* (re.union (re.+ (re.union (re.+ (re.union (str.to.re "u") (str.to.re "vvv"))) (re.* (re.union (str.to.re "w") (str.to.re "xx"))))) (re.union (re.* (re.+ (re.* (str.to.re "yyy")))) (re.+ (re.* (re.* (str.to.re "zzz"))))))))))))))))))
(assert (<= 15 (str.len var0)))
(check-sat)